(set-logic BV)

(synth-fun deobfucated ( (d (BitVec 64))  ) (BitVec 64)
	(
		(Start (BitVec 64)
			(
				(bvnot Start)
				(bvxor Start Start)
				(bvand Start Start)
				(bvor Start Start)
				(bvneg Start)
				(bvadd Start Start)
				(bvmul Start Start)
				(bvsub Start Start)
				d
			)
		)
	)
)

(constraint (= (deobfucated #x0000000008463a74) #xffbb8914b2f100fc))
(constraint (= (deobfucated #x000000003411ff83) #xf568aeeea581c374))
(constraint (= (deobfucated #x000000002e16d517) #xf7b3c9623c95e2d8))
(constraint (= (deobfucated #x000000002637f217) #xfa4b57e71af68fd8))
(constraint (= (deobfucated #x0000000027ba912e) #xf9d59fcc8b184a8e))
(constraint (= (deobfucated #x000000002e7e9322) #xf78e448a6f795c5a))
(constraint (= (deobfucated #x000000000f6ca6ab) #xff12165ad9c9231c))
(constraint (= (deobfucated #x0000000002882f5d) #xfff996d02de488da))
(constraint (= (deobfucated #x000000002f19375a) #xf755bb30e95afd02))
(constraint (= (deobfucated #x000000002246e83c) #xfb6916ac1a3c49b4))
(constraint (= (deobfucated #x00000000100700f3) #xfeff1fb082ae1864))
(constraint (= (deobfucated #x00000000050a016a) #xffe69b8dbaabfeb2))
(constraint (= (deobfucated #x0000000012d25643) #xfe9dbf0cde309434))
(constraint (= (deobfucated #x000000000d524abb) #xff4e89f4ff1110ac))
(constraint (= (deobfucated #x000000001a2db922) #xfd52ae3a61fc1e5a))
(constraint (= (deobfucated #x000000000f318c6a) #xff1927f4773657b2))
(constraint (= (deobfucated #x0000000009b354e2) #xffa1e668421b939a))
(constraint (= (deobfucated #x0000000032f024f8) #xf5dd504996b92ac8))
(constraint (= (deobfucated #x0000000005a5453f) #xffe020992e69b540))
(constraint (= (deobfucated #x0000000018b269eb) #xfd9e0fcc60aef85c))
(check-synth)